c description: Random 3-CNF over 7 variables and 3 clauses
c generator: CNFgen (0.9.2)
c copyright: (C) 2012-2022 Massimo Lauria <massimo.lauria@uniroma1.it>
c url: https://massimolauria.net/cnfgen
c command line: cnfgen randkcnf 3 7 3
c
p cnf 7 3
-1 -2 4 0
4 5 6 0
-1 -2 7 0
